Water Network: 13
***********************************************************************************************

-------------------------------- Solving Reduced Model using gurobi --------------------------
WDN Model Name: exact_reduced_wdn.mod
Gurobi 13.0.0: Set parameter LogToConsole to value 1
  tech:outlev = 1
  tech:outlev_mp = 1
Set parameter Presolve to value 1
  pre:solve = 1
Set parameter Aggregate to value 1
  pre:aggregate = 1
Set parameter TimeLimit to value 600
  lim:time = 600
Set parameter NumericFocus to value 1
  alg:numericfocus = 1
Set parameter OBBT to value 0
  mip:obbt = 0
Set parameter ScaleFlag to value 1
  pre:scale = 1
Set parameter Method to value 2
  alg:method = 2
Set parameter NodeMethod to value 1
  mip:nodemethod = 1
Set parameter NonConvex to value 2
  qp:nonconvex = 2
Set parameter MIPFocus to value 1
  mip:focus = 1
Set parameter NLPHeur to value 1
  alg:nlpheur = 1
Set parameter VarBranch to value 0
  mip:varbranch = 0
Set parameter MIPGapAbs to value 1e-06
  mip:gapabs = 9.9999999999999995e-07
Set parameter MIPGap to value 1e-06
  mip:gap = 9.9999999999999995e-07
Set parameter FeasibilityTol to value 1e-06
  alg:feastol = 9.9999999999999995e-07
  cvt:pre:feastol = 9.9999999999999995e-07
  cvt:pre:feastolrel = 1.0000000000000001e-09
  sol:chk:feastol = 9.9999999999999995e-07
  sol:chk:feastolrel = 1.0000000000000001e-09
Set parameter Heuristics to value 0.05
  mip:heurfrac = 0.050000000000000003

AMPL MP initial flat model has 1223 variables (0 integer, 0 binary);
Objectives: 1 linear; 
Constraints:  4661 linear; 1268 quadratic;
Algebraic expressions:  317 div; 634 powconstexp;

AMPL MP final model has 3759 variables (0 integer, 0 binary);
Objectives: 1 linear; 
Constraints:  4978 linear; 1268 quadratic;
Algebraic expressions:  317 div; 634 powconstexp;


Set parameter InfUnbdInfo to value 1
Gurobi Optimizer version 13.0.0 build v13.0.0rc1 (linux64 - "Debian GNU/Linux 13 (trixie)")

CPU model: INTEL(R) XEON(R) GOLD 6530, instruction set [SSE2|AVX|AVX2|AVX512]
Thread count: 32 physical cores, 64 logical processors, using up to 32 threads

Non-default parameters:
TimeLimit  600
MIPGap  1e-06
MIPGapAbs  1e-06
Method  2
ScaleFlag  1
MIPFocus  1
NodeMethod  1
OBBT  0
NLPHeur  1
VarBranch  0
InfUnbdInfo  1
NonConvex  2
NumericFocus  1
Presolve  1

Optimize a model with 4978 rows, 3759 columns and 10095 nonzeros (Min)
Model fingerprint: 0x029b6986
Model has 317 linear objective coefficients
Model has 317 general nonlinear constraints (2219 nonlinear terms)
Variable types: 3759 continuous, 0 integer (0 binary)
Coefficient statistics:
  Matrix range     [1e-01, 2e+07]
  Objective range  [1e+00, 1e+00]
  Bounds range     [3e-12, 1e+02]
  RHS range        [1e-05, 5e+05]
  NLCon coe range  [3e-12, 1e+03]
Presolve model has 317 nlconstr
Added 2537 variables to disaggregate expressions
Presolve removed 593 rows and 2227 columns
Presolve time: 0.03s
Presolved: 15906 rows, 4387 columns, 33342 nonzeros
Presolved model has 1268 bilinear constraint(s)
Presolved model has 951 nonlinear constraint(s)

Solving non-convex NLP to global optimality

Variable types: 4387 continuous, 0 integer (0 binary)
Root barrier log...

Ordering time: 0.00s

Barrier statistics:
 AA' NZ     : 1.642e+03
 Factor NZ  : 3.917e+03
 Factor Ops : 4.127e+04 (less than 1 second per iteration)
 Threads    : 1

                  Objective                Residual
Iter       Primal          Dual         Primal    Dual     Compl     Time
   0   2.12936652e+06  2.12935411e+06  5.61e-01 0.00e+00  3.75e-02     1s
   1   2.12936652e+06  2.12936365e+06  5.00e-16 7.63e-17  3.58e-03     1s
   2   2.12936652e+06  2.12936652e+06  7.77e-16 6.87e-17  3.58e-06     1s
   3   2.12936652e+06  2.12936652e+06  8.88e-16 8.36e-20  3.58e-09     1s
   4   2.12936652e+06  2.12936652e+06  7.77e-16 5.77e-23  3.58e-12     1s

Barrier solved model in 4 iterations and 1.34 seconds (0.69 work units)
Optimal objective 2.12936652e+06

Crossover time: 0.00 seconds (0.00 work units)

Root relaxation: objective 2.129367e+06, 107 iterations, 0.02 seconds (0.02 work units)

    Nodes    |    Current Node    |     Objective Bounds      |     Work
 Expl Unexpl |  Obj  Depth IntInf | Incumbent    BestBd   Gap | It/Node Time

     0     0 2129366.52    0 1039          - 2129366.52      -     -    1s
     0     0 2129366.52    0 1290          - 2129366.52      -     -    1s
     0     0 2129366.52    0 1293          - 2129366.52      -     -    1s
     0     0 2129366.52    0 1586          - 2129366.52      -     -    2s
     0     0 2129366.52    0 1533          - 2129366.52      -     -    2s
     0     0 2129366.52    0 1731          - 2129366.52      -     -    2s
     0     0 2129366.52    0 1717          - 2129366.52      -     -    2s
     0     0 2129366.52    0 1704          - 2129366.52      -     -    3s
     0     0 2129366.52    0 1710          - 2129366.52      -     -    3s
     0     0 2129366.52    0 1681          - 2129366.52      -     -    3s
     0     2 2129366.52    0 1676          - 2129366.52      -     -  135s
     3     8 2129366.52    2 1569          - 2129366.52      -  1550  141s
    31    64 2129366.52    5 1651          - 2129366.52      -  1089  147s
    63    96 2129366.52    6 1639          - 2129366.52      -  1169  155s
   477   587 infeasible   11               - 2129366.52      -   587  163s
  1580  1439 2129366.52   21 1523          - 2129366.52      -   231  166s
  5573  4789 2129366.52   82 1550          - 2129366.52      -  76.8  174s
  8132  6259 2129366.52  123 1550          - 2129366.52      -  56.3  178s
 10412  7665 2129366.52  160 1550          - 2129366.52      -  46.5  183s
 12612  9208 2129366.52  194 1550          - 2129366.52      -  40.4  187s
 14797  9210 2129366.52   71    0          - 2129366.52      -  35.9  205s
 14805  9215 2129366.52  199    0          - 2129366.52      -  35.8  210s

Cutting planes:
  RLT: 172

Explored 14807 nodes (551330 simplex iterations) in 600.02 seconds (125.97 work units)
Thread count was 32 (of 64 available processors)

Solution count 0

Time limit reached
Best objective -, best bound 2.129366518834e+06, gap -
Gurobi 13.0.0: time limit, without a feasible solution
551330 simplex iterations
18 barrier iterations
14807 branching nodes
Total cost using gurobi: 0.0
gurobi solve time: 600.14 seconds

-------------------------------- Solving Recover Model using cplex --------------------------
CPLEX 22.1.2: CPLEX 22.1.2: infeasible problem
0 simplex iterations

suffix dunbdd OUT;

*******************************************************************************

Total absolute constraint violation: 8.70e+04
HEAD-LOSS CONSTRAINT: ORIGINAL vs. APPROXIMATION


Sum of original head-loss violation : 0.00e+00
Sum of approx  head-loss violation  : 0.00e+00
Sum of absolute diff (orig vs approx): 0.00e+00
Sum of relative diff (orig vs approx): 0.00e+00

*******************************************************************************

Total Cost: 0.0
cplex solve time: 0.03 seconds
